# Solution for model r5_t9_m8_8 Batch Number: 2
# Finished Task: 7 / 9
# Makespan: 510.0, Total Distance: 271.0, Total Time: 0.6741
# R O S F Batch
0 0 9 0.0 0.0 -1
1 1 10 0.0 0.0 -1
2 2 5 0.0 0.0 -1
3 3 -1 0.0 0.0 -1
4 4 -1 0.0 0.0 -1
5 2 7 171.0 191.0 0
6 2 8 341.0 373.0 0
7 2 6 265.0 296.0 0
8 2 11 436.0 463.0 1
9 0 -1 174.0 205.0 0
10 1 -1 373.0 399.0 0
11 2 -1 485.0 510.0 1
12 -1 -1 -1.0 -1.0 1
13 -1 -1 -1.0 -1.0 1
